InboundTrucks  = 50;
OutboundTrucks = 50;
InboundDoors   = 8;
OutboundDoors  = 8;
ReleaseTime    = [110,108,7,11,10,46,106,21,94,103,85,109,39,32,77,27,77,4,74,87,20,55,81,50,102,92,110,65,47,69,119,56,64,34,115,4,111,3,46,59,119,40,116,48,54,114,113,67,21,71];
UnloadTime     = [34,18,7,22,15,34,11,25,8,11,14,35,14,9,25,29,13,35,32,29,26,11,26,26,20,27,31,12,13,27,6,11,12,12,15,8,6,26,8,8,8,20,31,17,18,23,14,17,6,24];
LoadTime       = [20,10,21,10,10,21,11,14,16,25,19,5,14,16,14,25,20,13,18,12,11,19,15,25,18,16,22,15,20,13,11,18,8,14,7,16,14,5,21,15,13,13,6,8,16,24,16,14,17,15];
TransferTime   = [| 0,0,0,1,12,0,3,0,0,3,0,0,0,0,0,0,0,0,5,8,0,1,0,0,5,0,0,3,4,12,3,0,6,6,0,7,0,0,0,0,0,5,0,0,0,2,0,0,0,0 | 0,0,0,0,2,0,0,2,0,0,0,0,0,5,5,9,0,0,0,5,0,8,3,0,0,5,0,0,0,0,0,0,9,8,3,11,0,0,0,0,0,0,0,4,0,0,0,0,0,6 | 0,6,6,5,0,2,0,0,4,0,11,5,0,0,6,0,0,4,0,4,5,0,0,2,0,0,4,0,0,0,0,4,0,0,0,0,0,0,4,8,0,4,0,0,6,0,4,0,0,0 | 4,0,0,4,0,0,0,0,0,2,0,0,0,0,0,0,0,0,6,0,0,4,0,0,3,0,0,3,0,0,4,0,0,6,0,0,5,0,0,0,0,0,0,5,0,5,11,0,0,0 | 0,5,0,0,1,0,0,6,11,0,1,0,0,2,0,7,2,0,0,2,12,0,1,0,0,0,0,0,2,0,0,1,0,0,3,0,0,2,0,0,4,0,0,0,9,0,5,0,5,1 | 0,12,1,4,0,0,0,0,2,0,0,2,0,0,5,0,0,4,0,6,3,11,0,3,0,0,5,0,0,0,0,0,3,0,0,5,4,0,0,0,0,5,11,0,0,0,0,1,7,0 | 0,0,0,4,0,0,0,0,0,4,0,0,4,0,0,0,0,0,6,0,9,0,12,0,0,0,0,3,0,5,0,0,0,0,0,0,0,0,0,3,0,0,0,0,11,1,0,0,3,0 | 0,2,0,0,0,0,0,5,4,0,4,0,0,6,0,0,0,0,0,2,0,0,3,11,0,5,0,0,4,0,0,5,0,0,1,0,0,5,0,0,4,0,0,6,0,0,0,0,0,0 | 0,0,2,0,12,2,0,0,2,0,7,3,0,0,0,0,0,3,0,0,6,0,0,0,0,4,0,0,0,2,0,0,5,0,0,0,11,11,3,0,0,2,0,0,0,0,0,2,0,0 | 3,0,0,0,0,0,0,0,0,0,0,0,6,7,0,4,0,10,3,0,0,6,0,0,2,12,0,1,0,0,3,6,0,2,7,0,0,0,0,0,0,0,2,0,0,2,0,0,4,0 | 0,3,0,0,3,7,0,3,0,0,6,0,5,6,0,0,0,11,11,0,0,0,0,0,0,0,7,10,2,0,0,1,0,0,6,0,7,2,0,0,3,0,0,1,0,0,5,0,0,6 | 0,5,0,0,0,4,0,9,2,0,0,5,0,12,0,0,0,2,0,0,3,0,0,3,8,0,3,0,0,4,5,0,3,0,4,6,0,0,5,0,0,6,0,0,0,0,7,0,0,0 | 1,0,0,2,0,0,0,4,0,4,0,8,0,0,0,0,0,0,0,0,0,4,0,11,0,0,0,5,0,0,3,12,5,5,12,0,4,0,0,5,0,0,2,0,0,1,0,0,2,0 | 0,0,0,0,4,0,0,5,0,0,3,0,0,4,8,0,0,0,0,2,0,0,4,0,0,0,0,0,6,0,0,1,0,0,2,0,0,0,0,0,5,12,4,6,0,0,0,10,0,2 | 0,0,1,9,0,2,0,0,0,0,0,2,0,0,3,0,0,4,0,9,0,0,0,5,0,0,0,6,0,6,0,0,2,0,0,0,0,0,0,0,0,0,0,0,6,0,0,6,0,0 | 1,11,8,0,8,0,1,7,0,1,0,0,5,0,0,4,0,0,3,0,0,5,7,0,0,0,11,2,0,0,3,0,0,0,0,6,5,0,9,4,0,0,4,0,4,6,0,7,4,0 | 11,1,0,0,6,0,0,1,0,0,6,0,0,0,8,0,3,0,4,2,0,9,3,0,0,4,0,0,5,0,0,6,0,0,1,8,0,0,0,0,3,0,9,5,0,0,6,0,0,0 | 0,0,0,0,0,3,0,0,1,0,5,2,0,0,5,0,0,0,0,0,0,0,0,0,0,0,0,0,0,4,0,0,2,0,5,5,0,0,0,0,0,0,0,0,5,11,0,6,11,0 | 6,0,0,0,0,0,4,0,0,1,12,0,2,0,12,5,0,0,5,0,0,3,0,0,3,0,9,0,0,10,0,0,0,6,0,9,0,0,8,0,0,0,0,0,0,3,0,6,1,0 | 0,4,6,0,0,11,0,6,0,0,4,0,0,0,0,7,2,12,0,5,4,0,5,0,11,3,0,10,5,0,0,4,0,0,2,0,0,5,0,5,0,0,0,5,0,0,4,0,0,4 | 0,0,0,0,0,1,11,5,3,0,0,0,0,0,4,0,0,1,0,0,0,0,0,0,0,0,0,5,0,4,0,0,0,0,0,0,0,0,0,0,0,1,0,0,5,0,0,3,0,0 | 1,0,0,0,0,0,5,0,9,0,0,0,3,0,0,3,0,0,0,0,0,6,0,11,1,0,0,0,0,0,5,0,0,5,0,4,3,0,0,1,0,0,0,0,0,6,0,0,1,0 | 0,0,0,0,5,10,0,2,0,0,0,0,0,4,0,0,3,10,0,2,0,0,0,11,0,5,0,0,3,0,0,4,0,0,2,0,0,0,0,0,2,0,0,3,0,0,2,0,0,6 | 0,0,5,0,12,4,0,11,6,0,9,0,0,0,2,0,0,2,0,0,6,0,0,1,0,0,2,0,0,0,0,7,0,0,0,1,0,4,4,0,0,2,0,0,2,0,0,6,0,0 | 3,0,0,1,0,0,6,0,0,0,0,0,0,0,0,2,0,0,5,0,0,0,7,0,4,0,0,5,5,0,4,0,0,2,0,0,4,0,0,6,0,0,4,0,0,0,0,0,0,0 | 0,0,0,0,0,0,0,2,11,0,6,0,0,2,0,0,5,0,0,1,0,0,3,0,0,0,0,0,0,0,0,0,0,0,4,0,0,5,0,0,1,0,0,5,0,0,3,0,0,4 | 0,0,1,0,0,0,0,4,2,0,0,5,0,0,1,0,0,4,0,0,6,0,4,4,0,0,3,8,0,5,0,11,1,0,0,4,0,0,0,0,0,2,0,0,0,0,0,2,0,0 | 3,0,0,1,0,0,3,0,0,4,0,0,0,0,0,1,0,0,2,0,7,4,0,0,0,0,8,3,12,9,6,0,9,1,0,8,3,0,0,3,11,0,6,0,5,5,0,0,1,0 | 0,6,0,0,5,0,0,5,0,9,3,9,0,5,0,0,5,0,0,0,5,0,2,0,0,4,0,0,6,10,0,0,0,0,3,0,0,5,0,0,2,8,0,0,0,0,0,0,5,0 | 0,0,0,0,0,0,0,0,4,0,0,1,0,6,6,12,0,2,0,0,2,0,0,3,0,0,3,0,0,4,0,0,0,0,0,5,0,0,1,7,12,2,10,0,0,0,0,2,0,0 | 0,0,0,0,0,0,0,0,0,0,0,4,1,8,0,3,6,0,3,0,0,1,0,0,4,0,0,3,0,7,6,0,0,4,0,0,2,7,0,4,0,0,0,10,10,1,0,0,2,0 | 0,0,0,0,1,0,0,1,0,0,5,0,0,1,0,0,4,0,0,0,0,0,6,10,0,2,0,0,0,0,0,1,0,7,2,12,0,0,12,0,6,0,0,0,0,0,0,5,6,5 | 0,0,0,0,0,4,9,0,5,0,0,3,0,0,6,0,0,3,0,0,1,0,0,0,0,0,0,9,0,5,10,0,1,0,0,0,0,0,3,0,0,0,0,0,4,12,0,0,0,0 | 1,8,0,3,0,0,0,0,0,5,0,0,2,0,0,0,5,0,0,0,0,4,0,0,5,0,0,5,0,0,4,4,0,0,0,0,5,10,7,0,0,0,0,8,0,2,0,10,0,0 | 0,2,0,0,1,0,11,6,0,0,2,0,0,0,0,0,0,0,0,3,0,0,1,0,0,4,0,0,5,10,0,0,0,0,0,0,9,0,0,6,3,0,0,0,0,0,0,0,0,2 | 0,0,5,0,0,0,0,0,0,0,0,0,0,0,0,0,0,3,0,0,0,9,0,6,0,0,0,0,0,2,0,0,6,0,11,5,0,0,6,0,0,6,0,0,0,0,0,5,0,0 | 5,0,0,6,11,0,0,0,0,0,0,0,5,0,0,5,4,4,0,0,0,0,0,0,0,7,12,0,0,9,4,0,0,3,0,0,0,0,0,0,0,0,3,0,0,5,0,0,0,0 | 0,0,0,0,3,0,0,0,0,0,0,0,0,5,0,0,1,0,0,2,0,0,0,0,0,5,0,0,1,0,0,1,0,0,2,0,0,0,0,0,1,0,0,6,7,0,6,0,0,1 | 0,0,0,0,5,5,0,0,5,7,0,3,0,9,1,4,0,6,0,0,2,0,0,0,0,0,5,0,0,6,0,0,0,0,0,6,0,0,1,0,0,6,0,0,2,5,0,5,0,0 | 3,0,8,0,0,0,3,0,0,0,0,5,0,0,8,6,0,0,4,0,7,4,0,0,1,0,0,0,0,0,3,0,0,2,0,0,0,0,5,0,0,12,4,6,0,0,0,0,0,0 | 5,1,0,0,0,0,0,6,0,0,1,0,11,5,0,0,2,0,0,5,0,0,0,0,12,0,0,0,0,0,0,0,0,0,6,0,0,3,0,0,6,0,0,0,0,0,0,0,0,4 | 0,0,0,0,0,6,0,0,4,0,0,4,0,0,0,9,6,1,0,0,0,0,0,0,8,0,6,0,0,1,0,0,0,0,0,5,0,0,6,0,0,5,0,0,4,0,0,4,0,0 | 0,0,0,3,0,0,5,0,0,1,0,0,3,0,0,0,0,0,4,0,0,3,0,0,0,5,6,4,0,0,0,11,0,4,0,0,3,0,0,0,8,0,1,0,0,3,0,0,0,0 | 0,3,0,12,1,0,0,3,0,0,0,5,0,4,0,0,0,0,0,2,0,0,0,0,0,6,5,0,1,0,10,1,0,0,0,0,8,6,0,0,3,0,0,2,0,0,6,0,0,5 | 9,0,3,0,0,4,0,8,0,0,0,6,0,0,2,0,0,2,0,0,3,0,0,0,0,0,5,0,0,0,0,0,0,0,0,3,0,0,0,0,0,5,0,0,3,0,0,2,11,12 | 2,0,7,5,0,0,2,0,0,2,0,0,5,0,0,3,0,0,5,0,0,0,0,0,0,0,0,5,0,0,0,0,0,0,12,0,3,0,0,6,0,8,2,0,0,0,0,0,3,0 | 4,0,0,0,4,0,0,2,0,0,2,5,0,2,0,0,0,0,0,5,0,0,4,0,0,2,0,0,2,0,0,0,5,0,5,0,5,1,0,0,1,7,0,0,8,9,5,0,0,0 | 0,0,1,5,0,6,0,0,2,0,0,5,0,6,2,0,0,6,12,0,2,0,0,4,0,0,5,0,0,1,0,0,0,9,0,4,0,5,5,0,0,3,0,0,6,8,0,0,0,12 | 0,0,0,1,0,0,0,0,0,6,0,0,3,0,0,6,0,0,0,8,6,4,0,0,1,0,0,6,0,0,2,0,0,1,0,0,6,0,8,0,0,8,6,0,0,2,10,0,3,0 | 0,6,10,0,0,0,0,0,0,4,3,9,0,2,0,0,2,0,0,6,7,0,3,11,0,5,7,5,1,0,0,0,4,0,0,0,0,1,0,10,6,0,0,6,0,0,0,0,0,0 |];
